outputs/case_206.model.txt
capital_adequacy_ratio = 40
improvement_effective = False
capital_significantly_insufficient_penalty_condition2 = False
net_worth = -1000000
improvement_plan_approved = False
cannot_pay_debt = False
cannot_fulfill_contract = False
risk_to_insured = False
net_worth_ratio_prev1 = 3/2
improvement_plan_submitted = False
net_worth_ratio_prev2 = 3/2
profit_loss_accelerated_deterioration = False
capital_significantly_insufficient_penalty = False
financial_deterioration_measures_submitted = False
capital_severely_insufficient_measures_executed = True
financial_deterioration_penalty = False
penalty = False
capital_severely_insufficient_measures_completed = True
capital_severely_insufficient_penalty_condition = False
capital_significantly_insufficient_measures_executed = False
capital_level = 4
financial_deterioration_penalty_condition = False
capital_significantly_insufficient_penalty_condition = False